COLUMNS

passenger_count
pickup_ID
dropoff_ID
request_time_sec
pickup_district
dropoff_district
LDuals
IDuals
vehicle_ID
pick_position
drop_position

REQUESTS_INFO
1      1046      847       31310     291       291       259       259       13        1         3         
3      1065      962       31385     291       291       238       238       13        2         4         
1      791       744       31208     290       290       345       345       14        1         2         
1      840       926       31332     290       290       251       251       35        1         2         
1      1107      782       31313     291       291       270       270       36        1         4         
1      1064      824       31338     291       291       292       292       36        2         3         
1      926       1132      31310     290       291       303       303       41        1         3         
3      937       859       31371     291       290       182       182       56        1         3         
1      200       578       31404     87        189       187       187       60        1         3         
1      712       408       31383     131       299       169       169       85        1         2         
1      1066      904       31391     291       290       191       191       96        1         4         
3      376       79        31402     168       98        176       176       108       1         3         
2      906       984       31312     290       291       327       327       114       1         2         
2      908       10        31202     290       98        441       441       135       1         3         
2      748       527       31388     290       52        165       165       163       1         4         
3      841       511       31306     290       199       345       345       181       1         2         
1      801       600       31392     291       280       141       141       185       1         2         
1      126       499       31393     178       52        173       173       189       1         3         
2      969       655       31388     290       189       198       198       190       1         3         
1      884       790       31354     290       290       232       232       201       1         2         
2      325       190       31403     299       286       185       185       220       1         2         
2      768       596       31392     290       131       165       165       227       1         4         
3      139       627       31397     57        189       142       142       235       1         3         
3      772       649       31395     290       189       203       203       243       1         2         
3      1401      602       31357     129       189       151       151       262       1         3         
1      1089      1195      31340     291       129       250       250       300       1         3         
1      865       484       31390     290       189       226       226       310       1         4         
1      888       1218      31303     290       84        331       331       326       1         3         
1      972       720       31312     290       290       321       321       328       1         3         
1      655       46        31384     189       98        120       120       335       1         3         
1      417       202       31406     100       87        90        90        338       1         4         
1      767       696       31403     290       189       86        86        341       1         4         
1      745       576       31389     290       189       162       162       344       1         3         
1      757       1045      31403     131       291       155       155       346       1         2         
2      924       628       31365     290       189       189       189       365       1         2         
1      841       656       31371     290       290       249       249       373       1         2         
2      1003      782       31349     291       291       288       288       438       1         3         
1      749       791       31310     290       290       276       276       440       1         2         
1      1192      1155      31283     129       129       224       224       443       1         2         
1      909       772       31310     290       290       306       306       448       1         2         
3      1065      962       31385     291       291       238       238       506       1         2         
2      1044      1010      31311     291       290       318       318       518       1         2         
1      1087      1542      31349     291       296       263       263       539       1         3         
1      609       651       31408     189       189       91        91        549       1         2         
2      864       748       31291     290       290       209       209       639       1         2         
2      1168      629       31324     291       189       238       238       654       1         3         
1      827       696       31397     291       189       141       141       684       1         3         
2      871       748       31383     291       290       197       197       689       1         3         
3      528       138       31403     52        57        108       108       690       1         3         
3      970       722       31403     290       290       246       246       696       1         2         
3      156       62        31401     286       98        127       127       718       1         2         
1      888       653       31400     290       189       234       234       732       1         2         
4      759       795       31334     131       290       222       222       749       1         2         
1      419       545       31408     168       52        112       112       785       1         2         
3      827       1127      31398     291       291       170       170       790       1         2         
3      970       722       31403     290       290       246       246       796       1         3         
1      875       673       31406     291       189       224       224       806       1         2         
1      766       544       31392     290       52        95        95        815       1         3         
1      1106      720       31307     291       290       246       246       819       1         3         
1      1106      716       31369     291       189       218       218       819       2         4         
1      980       1227      31360     291       192       221       221       822       1         5         
1      980       982       31409     291       291       172       172       822       2         3         
3      325       190       31403     299       286       185       185       826       1         2         
1      991       884       31391     290       290       184       184       839       1         3         
3      795       743       31238     290       290       377       377       843       1         2         
2      582       97        31391     189       9         90        90        845       1         2         
1      826       409       31175     291       52        381       381       857       1         3         
1      481       386       31399     189       299       125       125       900       1         3         
3      582       97        31391     189       9         90        90        924       1         3         
1      1022      824       31344     291       291       251       251       959       1         2         
3      1401      602       31357     129       189       159       159       977       1         2         
1      949       649       31360     290       189       284       284       978       1         4         
1      949       905       31404     290       290       213       213       978       2         3         
1      1091      881       31398     291       290       201       201       1004      1         3         
1      248       252       31381     266       206       129       129       1011      1         3         
3      772       649       31395     290       189       203       203       1020      1         3         
2      947       698       31299     290       189       352       352       1029      1         2         
3      969       655       31388     290       189       198       198       1036      1         3         
2      156       62        31401     286       98        127       127       1039      1         2         
3      817       582       31144     290       189       462       462       1053      1         2         
3      905       1226      31352     290       192       266       266       1060      1         2         
2      702       558       31399     290       189       145       145       1062      1         2         
1      228       153       31401     266       286       123       123       1074      1         2         
3      842       233       31377     290       206       284       284       1095      1         2         
1      813       897       31402     290       291       182       182       1096      1         3         
3      842       233       31377     290       206       284       284       1109      1         2         
1      791       697       31373     290       189       180       180       1124      1         4         
1      859       674       31233     290       189       356       356       1132      1         2         
1      971       923       31392     290       290       219       219       1147      1         3         
1      951       357       31377     290       277       250       250       1177      1         3         
3      970       938       31360     290       291       289       289       1180      1         2         
1      928       716       31357     290       189       292       292       1181      1         2         
2      747       929       31354     290       290       180       180       1230      1         2         
1      971       1208      31312     290       192       304       304       1235      1         3         
2      866       698       31387     290       189       299       299       1242      1         2         
2      349       505       31341     127       52        174       174       1243      1         2         
1      748       875       31382     290       291       132       132       1278      1         4         
1      859       814       31399     290       290       179       179       1304      1         2         
1      983       720       31363     291       290       193       193       1309      1         3         
2      936       598       31330     291       189       285       285       1316      1         2         
3      962       874       31188     291       291       466       466       1322      1         2         
1      791       651       31406     290       189       147       147       1346      1         2         
1      926       698       31383     290       189       212       212       1350      1         4         
1      1151      654       31370     291       189       184       184       1354      1         3         
3      1129      652       31359     291       189       185       185       1357      1         3         
1      908       925       31394     290       290       264       264       1378      1         2         
2      960       524       31395     291       52        226       226       1407      1         3         
1      960       1025      31086     291       291       498       498       1429      1         2         
2      795       743       31238     290       290       330       330       1441      1         4         
1      840       603       31326     290       189       262       262       1472      1         4         
2      189       292       31410     286       87        0         0         0         0         0         
3      413       352       31410     52        119       0         0         0         0         0         
1      228       377       31410     266       168       0         0         0         0         0         
1      556       484       31410     199       189       0         0         0         0         0         
1      584       728       31411     189       290       0         0         0         0         0         
2      722       923       31411     290       290       0         0         0         0         0         
3      506       1679      31411     189       142       0         0         0         0         0         
3      506       1679      31411     189       142       0         0         0         0         0         
1      133       36        31412     9         98        0         0         0         0         0         
2      871       1178      31412     291       84        0         0         0         0         0         
1      152       330       31412     9         127       0         0         0         0         0         
2      652       399       31412     189       168       0         0         0         0         0         
1      269       191       31412     127       266       0         0         0         0         0         
1      865       881       31412     290       290       0         0         0         0         0         
3      372       508       31412     119       199       0         0         0         0         0         
3      372       508       31412     119       199       0         0         0         0         0         
1      718       627       31413     189       189       0         0         0         0         0         
1      499       46        31413     52        98        0         0         0         0         0         
1      992       722       31413     290       290       0         0         0         0         0         
1      862       766       31413     290       290       0         0         0         0         0         
1      370       484       31413     52        189       0         0         0         0         0         
1      805       673       31414     291       189       0         0         0         0         0         
1      96        138       31414     9         57        0         0         0         0         0         
1      20        291       31414     98        87        0         0         0         0         0         
1      501       415       31415     52        100       0         0         0         0         0         
3      837       698       31415     290       189       0         0         0         0         0         
2      769       415       31415     290       100       0         0         0         0         0         
1      720       668       31415     290       280       0         0         0         0         0         
1      273       674       31416     206       189       0         0         0         0         0         
1      721       969       31416     290       290       0         0         0         0         0         
2      651       116       31416     189       9         0         0         0         0         0         
1      828       526       31416     291       52        0         0         0         0         0         
2      229       348       31416     266       299       0         0         0         0         0         
1      509       675       31416     199       189       0         0         0         0         0         
3      874       766       31416     291       290       0         0         0         0         0         
2      874       766       31416     291       290       0         0         0         0         0         
2      365       285       31417     299       299       0         0         0         0         0         
1      760       788       31417     291       290       0         0         0         0         0         
2      671       894       31417     280       291       0         0         0         0         0         
1      926       1032      31417     290       84        0         0         0         0         0         
1      1087      628       31417     291       189       0         0         0         0         0         
1      958       135       31417     291       286       0         0         0         0         0         
1      61        600       31418     98        280       0         0         0         0         0         
1      801       968       31418     291       290       0         0         0         0         0         
1      479       247       31418     52        266       0         0         0         0         0         
1      411       231       31418     52        266       0         0         0         0         0         
1      531       679       31418     189       290       0         0         0         0         0         
3      454       208       31418     52        286       0         0         0         0         0         
2      454       208       31418     52        286       0         0         0         0         0         
1      841       351       31418     290       52        0         0         0         0         0         
1      599       531       31419     280       189       0         0         0         0         0         
1      679       814       31419     290       290       0         0         0         0         0         
1      526       350       31419     52        127       0         0         0         0         0         
1      603       616       31419     189       131       0         0         0         0         0         
1      185       36        31419     87        98        0         0         0         0         0         
1      813       557       31419     290       189       0         0         0         0         0         
1      1129      871       31419     291       291       0         0         0         0         0         
1      836       1285      31419     290       129       0         0         0         0         0         
1      768       722       31420     290       290       0         0         0         0         0         
2      789       604       31420     290       189       0         0         0         0         0         
1      1148      874       31420     291       291       0         0         0         0         0         
1      905       558       31420     290       189       0         0         0         0         0         
1      1088      860       31420     291       290       0         0         0         0         0         
1      723       1263      31420     290       192       0         0         0         0         0         
1      781       962       31421     291       291       0         0         0         0         0         
1      791       743       31421     290       290       0         0         0         0         0         
1      644       31        31421     131       9         0         0         0         0         0         
3      884       929       31421     290       290       0         0         0         0         0         
3      669       545       31422     280       52        0         0         0         0         0         
1      577       594       31422     189       131       0         0         0         0         0         
1      676       1373      31422     189       129       0         0         0         0         0         
1      1148      719       31422     291       189       0         0         0         0         0         
1      1106      606       31423     291       189       0         0         0         0         0         
1      850       697       31423     291       189       0         0         0         0         0         
1      693       650       31423     280       189       0         0         0         0         0         
1      816       859       31423     290       290       0         0         0         0         0         
1      60        125       31423     9         54        0         0         0         0         0         
1      201       415       31423     87        100       0         0         0         0         0         
1      865       608       31423     290       189       0         0         0         0         0         
1      835       670       31423     290       280       0         0         0         0         0         
1      905       995       31424     290       84        0         0         0         0         0         
1      739       875       31424     189       291       0         0         0         0         0         
1      417       351       31425     100       52        0         0         0         0         0         
1      573       1151      31425     189       291       0         0         0         0         0         
1      789       652       31425     290       189       0         0         0         0         0         
3      22        232       31426     98        266       0         0         0         0         0         
3      22        232       31426     98        266       0         0         0         0         0         
1      972       531       31426     290       189       0         0         0         0         0         
4      1003      873       31426     291       291       0         0         0         0         0         
1      455       662       31426     52        131       0         0         0         0         0         
1      677       577       31427     189       189       0         0         0         0         0         
1      743       575       31427     290       189       0         0         0         0         0         
2      959       1172      31427     291       129       0         0         0         0         0         
1      760       522       31427     291       52        0         0         0         0         0         
1      484       571       31427     189       52        0         0         0         0         0         
1      485       415       31427     189       100       0         0         0         0         0         
1      680       607       31427     290       189       0         0         0         0         0         
3      512       719       31427     199       189       0         0         0         0         0         
3      512       719       31427     199       189       0         0         0         0         0         
1      485       193       31428     189       266       0         0         0         0         0         
1      948       415       31428     290       100       0         0         0         0         0         
1      835       673       31428     290       189       0         0         0         0         0         
1      577       594       31428     189       131       0         0         0         0         0         
1      344       348       31428     299       299       0         0         0         0         0         
3      991       924       31429     290       290       0         0         0         0         0         
2      991       924       31429     290       290       0         0         0         0         0         
1      408       303       31429     299       299       0         0         0         0         0         
1      527       696       31429     52        189       0         0         0         0         0         
1      983       835       31430     291       290       0         0         0         0         0         
1      860       534       31430     290       199       0         0         0         0         0         
1      848       710       31430     291       131       0         0         0         0         0         
1      873       803       31431     291       291       0         0         0         0         0         
1      443       484       31431     168       189       0         0         0         0         0         
4      374       603       31431     119       189       0         0         0         0         0         
1      772       552       31431     290       189       0         0         0         0         0         
2      582       532       31431     189       199       0         0         0         0         0         
3      582       532       31431     189       199       0         0         0         0         0         
2      603       697       31431     189       189       0         0         0         0         0         
3      603       697       31431     189       189       0         0         0         0         0         
3      633       719       31432     189       189       0         0         0         0         0         
3      633       719       31432     189       189       0         0         0         0         0         
1      628       584       31432     189       189       0         0         0         0         0         
1      651       121       31432     189       57        0         0         0         0         0         
1      768       828       31432     290       291       0         0         0         0         0         
2      789       883       31433     290       290       0         0         0         0         0         
1      308       442       31433     127       168       0         0         0         0         0         
1      915       720       31433     291       290       0         0         0         0         0         
1      903       968       31433     290       290       0         0         0         0         0         
2      345       10        31433     299       98        0         0         0         0         0         
1      213       776       31433     266       131       0         0         0         0         0         
1      928       925       31433     290       290       0         0         0         0         0         
3      10        331       31434     98        127       0         0         0         0         0         
2      10        331       31434     98        127       0         0         0         0         0         
3      768       1054      31434     290       84        0         0         0         0         0         
3      768       1054      31434     290       84        0         0         0         0         0         
2      580       399       31434     189       168       0         0         0         0         0         
1      369       499       31434     52        52        0         0         0         0         0         
1      947       674       31434     290       189       0         0         0         0         0         
1      745       652       31434     290       189       0         0         0         0         0         
1      883       737       31434     290       189       0         0         0         0         0         
1      396       692       31434     119       280       0         0         0         0         0         
2      332       556       31434     87        199       0         0         0         0         0         
3      332       556       31434     87        199       0         0         0         0         0         
1      325       980       31435     299       291       0         0         0         0         0         
1      717       648       31435     189       189       0         0         0         0         0         
1      947       727       31435     290       290       0         0         0         0         0         
1      864       721       31435     290       290       0         0         0         0         0         
1      527       484       31435     52        189       0         0         0         0         0         
1      509       461       31435     199       189       0         0         0         0         0         
1      1168      857       31435     291       290       0         0         0         0         0         
2      179       459       31436     178       189       0         0         0         0         0         
3      179       459       31436     178       189       0         0         0         0         0         
1      551       789       31436     189       290       0         0         0         0         0         
1      373       211       31436     119       266       0         0         0         0         0         
1      509       597       31436     199       131       0         0         0         0         0         
1      416       738       31436     100       189       0         0         0         0         0         
2      488       728       31437     199       290       0         0         0         0         0         
1      22        173       31437     98        286       0         0         0         0         0         
1      155       396       31437     286       119       0         0         0         0         0         
2      22        581       31438     98        189       0         0         0         0         0         
1      1046      923       31438     291       290       0         0         0         0         0         
2      504       175       31438     52        266       0         0         0         0         0         
1      433       526       31438     52        52        0         0         0         0         0         
1      1089      22        31438     291       98        0         0         0         0         0         
1      875       720       31438     291       290       0         0         0         0         0         
1      549       601       31439     52        189       0         0         0         0         0         
1      841       574       31439     290       189       0         0         0         0         0         
1      894       772       31439     291       290       0         0         0         0         0         
1      676       760       31439     189       291       0         0         0         0         0         
